33D32945 STP File, STP Format Version 1.0

SECTION Comment
Name    "i080-115"
Creator "Cees Duin"
Remark  "Incidence graph"
END

SECTION Graph
Nodes 80
Edges 350
E 1 6 298
E 1 12 200
E 1 16 205
E 1 23 197
E 1 24 202
E 1 41 197
E 1 48 200
E 1 63 195
E 1 73 198
E 1 74 196
E 2 13 209
E 2 23 192
E 2 24 200
E 2 28 199
E 2 39 197
E 2 45 197
E 2 46 196
E 2 50 199
E 2 51 203
E 2 59 203
E 2 62 193
E 2 67 210
E 2 75 202
E 2 80 195
E 3 7 302
E 3 41 200
E 3 46 200
E 3 53 197
E 3 66 203
E 4 13 201
E 4 14 201
E 4 24 198
E 4 31 198
E 4 40 203
E 4 50 204
E 4 68 202
E 4 71 203
E 5 19 197
E 5 36 195
E 5 40 203
E 5 62 195
E 5 70 201
E 6 16 198
E 6 24 199
E 6 26 197
E 6 29 196
E 6 53 204
E 6 64 207
E 7 24 196
E 7 43 204
E 7 53 205
E 7 65 200
E 7 74 198
E 8 15 197
E 8 38 196
E 8 48 204
E 8 55 198
E 8 60 204
E 8 75 193
E 9 20 94
E 9 25 102
E 9 54 102
E 9 56 103
E 9 57 97
E 9 63 96
E 9 75 96
E 10 11 99
E 10 25 103
E 10 26 108
E 10 36 96
E 11 24 101
E 11 29 96
E 11 42 95
E 11 43 97
E 11 55 100
E 11 61 95
E 11 64 103
E 11 66 101
E 11 74 94
E 12 13 94
E 12 14 103
E 12 22 101
E 12 30 91
E 12 38 93
E 12 43 93
E 12 52 98
E 12 60 92
E 12 71 104
E 13 21 106
E 13 23 100
E 13 34 100
E 13 37 96
E 13 41 98
E 13 43 105
E 13 46 101
E 13 48 96
E 13 49 103
E 13 59 104
E 13 61 100
E 13 66 96
E 13 69 102
E 13 79 96
E 13 80 87
E 14 21 95
E 14 30 97
E 14 36 102
E 14 52 100
E 14 63 100
E 14 72 107
E 14 76 94
E 15 24 102
E 15 26 105
E 15 38 99
E 15 41 105
E 15 54 98
E 15 62 86
E 15 75 101
E 15 77 96
E 15 78 101
E 16 21 103
E 16 23 94
E 16 32 102
E 17 24 101
E 17 26 102
E 17 44 101
E 17 52 108
E 17 54 98
E 17 65 96
E 17 79 95
E 17 80 100
E 18 20 109
E 18 30 101
E 18 36 97
E 18 48 99
E 18 79 92
E 19 20 89
E 19 29 96
E 19 33 110
E 19 47 102
E 19 54 102
E 19 57 100
E 19 62 102
E 19 69 90
E 19 74 95
E 19 75 99
E 20 22 100
E 20 48 102
E 20 50 101
E 20 54 103
E 20 55 93
E 20 77 97
E 20 79 98
E 21 36 99
E 21 48 97
E 21 74 96
E 21 78 96
E 22 57 103
E 22 75 100
E 23 25 104
E 23 37 101
E 23 39 92
E 23 71 102
E 23 80 91
E 24 26 106
E 24 53 106
E 24 56 97
E 24 60 103
E 24 61 98
E 24 64 94
E 24 65 101
E 24 76 97
E 24 80 105
E 25 30 100
E 25 39 98
E 25 45 98
E 25 60 105
E 25 61 103
E 25 76 97
E 25 77 103
E 26 43 98
E 26 45 103
E 26 58 103
E 26 64 101
E 26 71 100
E 26 76 100
E 26 78 97
E 27 30 101
E 27 37 107
E 27 46 103
E 27 50 107
E 27 51 94
E 27 57 108
E 27 69 101
E 27 78 101
E 28 33 99
E 28 46 107
E 28 52 105
E 28 60 100
E 29 34 99
E 29 37 104
E 29 41 98
E 29 50 91
E 29 55 102
E 29 64 101
E 30 44 100
E 30 50 105
E 30 53 103
E 31 38 102
E 31 39 106
E 31 44 99
E 31 45 99
E 31 70 101
E 31 72 99
E 32 38 100
E 32 46 101
E 32 58 104
E 32 69 108
E 33 35 104
E 33 56 100
E 33 58 101
E 33 66 99
E 34 35 101
E 34 45 107
E 34 46 96
E 34 56 103
E 34 79 94
E 35 40 94
E 35 47 102
E 35 51 100
E 35 52 99
E 35 58 99
E 35 59 95
E 35 67 107
E 35 74 103
E 35 77 95
E 36 42 102
E 36 46 101
E 36 62 104
E 36 64 103
E 36 69 97
E 36 72 101
E 36 75 110
E 37 45 98
E 37 50 99
E 37 61 95
E 37 77 99
E 38 42 99
E 38 48 99
E 38 61 102
E 38 65 112
E 38 71 99
E 38 76 100
E 38 77 91
E 39 47 97
E 39 61 109
E 39 64 102
E 39 65 94
E 39 80 109
E 40 44 102
E 40 54 95
E 40 65 94
E 41 50 106
E 42 45 101
E 42 48 95
E 42 51 99
E 42 59 98
E 42 65 108
E 43 56 99
E 43 64 99
E 44 53 97
E 44 60 104
E 44 65 101
E 44 66 102
E 44 71 101
E 45 46 98
E 45 52 100
E 45 55 102
E 45 62 100
E 45 80 104
E 46 49 99
E 46 53 97
E 46 65 104
E 46 67 97
E 46 73 98
E 47 67 94
E 47 72 100
E 47 75 99
E 48 51 98
E 48 75 113
E 49 56 95
E 49 66 106
E 49 69 102
E 49 73 104
E 50 56 108
E 50 61 94
E 50 65 101
E 50 70 106
E 51 55 96
E 51 65 92
E 51 76 87
E 52 55 101
E 52 69 99
E 52 77 98
E 53 56 100
E 53 57 100
E 53 59 100
E 53 60 99
E 53 80 100
E 54 60 104
E 54 65 108
E 54 71 99
E 54 73 106
E 54 79 107
E 55 67 93
E 55 70 93
E 55 75 97
E 56 57 102
E 57 78 103
E 58 64 100
E 58 72 102
E 59 63 102
E 59 64 101
E 59 71 104
E 60 73 97
E 61 63 105
E 61 69 95
E 62 70 98
E 62 71 101
E 62 80 102
E 63 65 103
E 63 68 101
E 63 76 98
E 64 76 101
E 65 78 94
E 66 67 94
E 66 70 105
E 66 71 102
E 66 78 94
E 67 72 97
E 67 79 105
E 68 76 97
E 68 79 101
E 69 77 105
E 70 78 108
E 70 80 94
E 71 76 93
E 71 78 97
E 73 76 95
E 73 78 100
E 74 79 96
END

SECTION Terminals
Terminals 8
T 1
T 2
T 3
T 4
T 5
T 6
T 7
T 8
END

EOF
